RobustCbss/GLKH-1.1/TMP/mtspf.pid5575.atsp
NAME : mtspf.pid5575.gtsp
TYPE : ATSP
DIMENSION : 45
EDGE_WEIGHT_TYPE : EXPLICIT
EDGE_WEIGHT_FORMAT : FULL_MATRIX
EDGE_WEIGHT_SECTION
999999 5368709 5368709 5368709 5368709 5368754 5368753 5368752 5368753 5368725 5368724 5368723 5368724 5368745 5368744 5368743 5368744 5368716 5368717 5368718 5368717 5368735 5368734 5368733 5368734 5368729 5368728 5368729 5368730 5368727 5368726 5368725 5368726 5368730 5368731 5368732 5368731 5368723 5368722 5368723 5368724 5368729 5368728 5368727 5368728 
5368709 999999 5368709 5368709 5368709 5368754 5368753 5368752 5368753 5368725 5368724 5368723 5368724 5368745 5368744 5368743 5368744 5368722 5368723 5368724 5368723 5368737 5368738 5368739 5368738 5368723 5368722 5368723 5368724 5368727 5368726 5368725 5368726 5368736 5368737 5368738 5368737 5368717 5368716 5368717 5368718 5368729 5368728 5368727 5368728 
5368709 5368709 999999 5368709 5368709 5368740 5368739 5368738 5368739 5368759 5368758 5368757 5368758 5368743 5368742 5368741 5368742 5368740 5368739 5368738 5368739 5368725 5368724 5368723 5368724 5368763 5368762 5368761 5368762 5368749 5368748 5368747 5368748 5368726 5368725 5368724 5368725 5368757 5368756 5368755 5368756 5368759 5368758 5368757 5368758 
5368709 5368709 5368709 999999 5368709 5368751 5368752 5368751 5368750 5368738 5368737 5368736 5368737 5368742 5368743 5368742 5368741 5368719 5368718 5368717 5368718 5368732 5368733 5368732 5368731 5368742 5368741 5368740 5368741 5368728 5368727 5368726 5368727 5368723 5368724 5368723 5368722 5368736 5368735 5368734 5368735 5368738 5368737 5368736 5368737 
5368709 5368709 5368709 5368709 999999 5368761 5368762 5368761 5368760 5368732 5368733 5368732 5368731 5368752 5368753 5368752 5368751 5368719 5368720 5368719 5368718 5368742 5368743 5368742 5368741 5368730 5368729 5368730 5368731 5368734 5368735 5368734 5368733 5368733 5368734 5368733 5368732 5368724 5368723 5368724 5368725 5368736 5368737 5368736 5368735 
5368709 5368709 5368709 5368709 5368709 999999 0 10737418 10737418 5368739 5368740 5368741 5368740 5368719 5368720 5368721 5368720 5368752 5368753 5368754 5368753 5368729 5368730 5368731 5368730 5368743 5368744 5368745 5368744 5368737 5368738 5368739 5368738 5368738 5368739 5368740 5368739 5368749 5368750 5368751 5368750 5368735 5368736 5368737 5368736 
5368709 5368709 5368709 5368709 5368709 10737418 999999 0 10737418 5368740 5368741 5368742 5368741 5368720 5368721 5368722 5368721 5368753 5368754 5368755 5368754 5368730 5368731 5368732 5368731 5368744 5368745 5368746 5368745 5368738 5368739 5368740 5368739 5368739 5368740 5368741 5368740 5368750 5368751 5368752 5368751 5368736 5368737 5368738 5368737 
5368709 5368709 5368709 5368709 5368709 10737418 10737418 999999 0 5368741 5368740 5368741 5368742 5368721 5368720 5368721 5368722 5368754 5368753 5368754 5368755 5368731 5368730 5368731 5368732 5368745 5368744 5368745 5368746 5368739 5368738 5368739 5368740 5368740 5368739 5368740 5368741 5368751 5368750 5368751 5368752 5368737 5368736 5368737 5368738 
5368709 5368709 5368709 5368709 5368709 0 10737418 10737418 999999 5368740 5368739 5368740 5368741 5368720 5368719 5368720 5368721 5368753 5368752 5368753 5368754 5368730 5368729 5368730 5368731 5368744 5368743 5368744 5368745 5368738 5368737 5368738 5368739 5368739 5368738 5368739 5368740 5368750 5368749 5368750 5368751 5368736 5368735 5368736 5368737 
5368709 5368709 5368709 5368709 5368709 5368741 5368742 5368741 5368740 999999 0 10737418 10737418 5368732 5368733 5368732 5368731 5368731 5368732 5368731 5368730 5368746 5368747 5368746 5368745 5368714 5368713 5368714 5368715 5368722 5368723 5368722 5368721 5368745 5368746 5368745 5368744 5368720 5368721 5368722 5368721 5368716 5368717 5368716 5368715 
5368709 5368709 5368709 5368709 5368709 5368740 5368741 5368740 5368739 10737418 999999 0 10737418 5368731 5368732 5368731 5368730 5368730 5368731 5368732 5368731 5368745 5368746 5368747 5368746 5368715 5368714 5368715 5368716 5368721 5368722 5368723 5368722 5368744 5368745 5368746 5368745 5368721 5368722 5368723 5368722 5368715 5368716 5368715 5368714 
5368709 5368709 5368709 5368709 5368709 5368741 5368740 5368739 5368740 10737418 10737418 999999 0 5368732 5368731 5368730 5368731 5368729 5368730 5368731 5368730 5368744 5368745 5368746 5368745 5368716 5368715 5368716 5368717 5368720 5368721 5368722 5368721 5368743 5368744 5368745 5368744 5368722 5368721 5368722 5368723 5368716 5368715 5368714 5368715 
5368709 5368709 5368709 5368709 5368709 5368742 5368741 5368740 5368741 0 10737418 10737418 999999 5368733 5368732 5368731 5368732 5368730 5368731 5368730 5368729 5368745 5368746 5368745 5368744 5368715 5368714 5368715 5368716 5368721 5368722 5368721 5368720 5368744 5368745 5368744 5368743 5368721 5368720 5368721 5368722 5368717 5368716 5368715 5368716 
5368709 5368709 5368709 5368709 5368709 5368721 5368722 5368721 5368720 5368730 5368731 5368732 5368731 999999 0 10737418 10737418 5368743 5368744 5368745 5368744 5368730 5368731 5368730 5368729 5368734 5368735 5368736 5368735 5368728 5368729 5368730 5368729 5368729 5368730 5368731 5368730 5368740 5368741 5368742 5368741 5368726 5368725 5368726 5368727 
5368709 5368709 5368709 5368709 5368709 5368720 5368721 5368720 5368719 5368731 5368732 5368733 5368732 10737418 999999 0 10737418 5368744 5368745 5368746 5368745 5368729 5368730 5368731 5368730 5368735 5368736 5368737 5368736 5368729 5368730 5368731 5368730 5368730 5368731 5368732 5368731 5368741 5368742 5368743 5368742 5368727 5368726 5368727 5368728 
5368709 5368709 5368709 5368709 5368709 5368721 5368720 5368719 5368720 5368732 5368731 5368732 5368733 10737418 10737418 999999 0 5368745 5368744 5368745 5368746 5368728 5368729 5368730 5368729 5368736 5368735 5368736 5368737 5368730 5368729 5368730 5368731 5368731 5368730 5368731 5368732 5368742 5368741 5368742 5368743 5368728 5368727 5368728 5368729 
5368709 5368709 5368709 5368709 5368709 5368722 5368721 5368720 5368721 5368731 5368730 5368731 5368732 0 10737418 10737418 999999 5368744 5368743 5368744 5368745 5368729 5368730 5368729 5368728 5368735 5368734 5368735 5368736 5368729 5368728 5368729 5368730 5368730 5368729 5368730 5368731 5368741 5368740 5368741 5368742 5368727 5368726 5368727 5368728 
5368709 5368709 5368709 5368709 5368709 5368754 5368755 5368754 5368753 5368731 5368730 5368729 5368730 5368745 5368746 5368745 5368744 999999 0 10737418 10737418 5368735 5368736 5368735 5368734 5368735 5368734 5368733 5368734 5368727 5368728 5368727 5368726 5368726 5368727 5368726 5368725 5368729 5368728 5368727 5368728 5368731 5368730 5368729 5368730 
5368709 5368709 5368709 5368709 5368709 5368753 5368754 5368753 5368752 5368730 5368729 5368730 5368731 5368744 5368745 5368744 5368743 10737418 999999 0 10737418 5368734 5368735 5368734 5368733 5368734 5368733 5368734 5368735 5368726 5368727 5368726 5368725 5368725 5368726 5368725 5368724 5368728 5368727 5368728 5368729 5368730 5368729 5368730 5368731 
5368709 5368709 5368709 5368709 5368709 5368754 5368753 5368752 5368753 5368731 5368730 5368731 5368732 5368745 5368744 5368743 5368744 10737418 10737418 999999 0 5368735 5368734 5368733 5368734 5368735 5368734 5368735 5368736 5368727 5368726 5368725 5368726 5368724 5368725 5368724 5368723 5368729 5368728 5368729 5368730 5368731 5368730 5368731 5368732 
5368709 5368709 5368709 5368709 5368709 5368755 5368754 5368753 5368754 5368732 5368731 5368730 5368731 5368746 5368745 5368744 5368745 0 10737418 10737418 999999 5368736 5368735 5368734 5368735 5368736 5368735 5368734 5368735 5368728 5368727 5368726 5368727 5368725 5368726 5368725 5368724 5368730 5368729 5368728 5368729 5368732 5368731 5368730 5368731 
5368709 5368709 5368709 5368709 5368709 5368731 5368732 5368731 5368730 5368746 5368745 5368744 5368745 5368730 5368729 5368728 5368729 5368733 5368734 5368735 5368734 999999 0 10737418 10737418 5368750 5368749 5368748 5368749 5368736 5368735 5368734 5368735 5368719 5368720 5368721 5368720 5368744 5368743 5368742 5368743 5368746 5368745 5368744 5368745 
5368709 5368709 5368709 5368709 5368709 5368730 5368731 5368730 5368729 5368745 5368744 5368745 5368746 5368729 5368728 5368729 5368730 5368734 5368735 5368736 5368735 10737418 999999 0 10737418 5368749 5368748 5368749 5368750 5368735 5368734 5368735 5368736 5368720 5368721 5368722 5368721 5368743 5368742 5368743 5368744 5368745 5368744 5368745 5368746 
5368709 5368709 5368709 5368709 5368709 5368731 5368730 5368729 5368730 5368746 5368745 5368746 5368747 5368730 5368729 5368730 5368731 5368735 5368734 5368735 5368736 10737418 10737418 999999 0 5368750 5368749 5368750 5368751 5368736 5368735 5368736 5368737 5368721 5368720 5368721 5368722 5368744 5368743 5368744 5368745 5368746 5368745 5368746 5368747 
5368709 5368709 5368709 5368709 5368709 5368732 5368731 5368730 5368731 5368747 5368746 5368745 5368746 5368731 5368730 5368729 5368730 5368734 5368733 5368734 5368735 0 10737418 10737418 999999 5368751 5368750 5368749 5368750 5368737 5368736 5368735 5368736 5368720 5368719 5368720 5368721 5368745 5368744 5368743 5368744 5368747 5368746 5368745 5368746 
5368709 5368709 5368709 5368709 5368709 5368745 5368746 5368745 5368744 5368716 5368717 5368716 5368715 5368736 5368737 5368736 5368735 5368735 5368736 5368735 5368734 5368750 5368751 5368750 5368749 999999 0 10737418 10737418 5368726 5368727 5368726 5368725 5368749 5368750 5368749 5368748 5368716 5368717 5368718 5368717 5368720 5368721 5368720 5368719 
5368709 5368709 5368709 5368709 5368709 5368744 5368745 5368744 5368743 5368715 5368716 5368715 5368714 5368735 5368736 5368735 5368734 5368734 5368735 5368736 5368735 5368749 5368750 5368751 5368750 10737418 999999 0 10737418 5368725 5368726 5368727 5368726 5368748 5368749 5368750 5368749 5368717 5368718 5368719 5368718 5368719 5368720 5368719 5368718 
5368709 5368709 5368709 5368709 5368709 5368745 5368744 5368743 5368744 5368714 5368715 5368714 5368713 5368736 5368735 5368734 5368735 5368733 5368734 5368735 5368734 5368748 5368749 5368750 5368749 10737418 10737418 999999 0 5368724 5368725 5368726 5368725 5368747 5368748 5368749 5368748 5368716 5368717 5368718 5368717 5368720 5368719 5368718 5368719 
5368709 5368709 5368709 5368709 5368709 5368746 5368745 5368744 5368745 5368715 5368716 5368715 5368714 5368737 5368736 5368735 5368736 5368734 5368735 5368734 5368733 5368749 5368750 5368749 5368748 0 10737418 10737418 999999 5368725 5368726 5368725 5368724 5368748 5368749 5368748 5368747 5368715 5368716 5368717 5368716 5368721 5368720 5368719 5368720 
5368709 5368709 5368709 5368709 5368709 5368739 5368740 5368739 5368738 5368722 5368721 5368720 5368721 5368730 5368731 5368730 5368729 5368725 5368726 5368727 5368726 5368736 5368737 5368736 5368735 5368726 5368725 5368724 5368725 999999 0 10737418 10737418 5368735 5368736 5368735 5368734 5368722 5368723 5368724 5368723 5368722 5368721 5368720 5368721 
5368709 5368709 5368709 5368709 5368709 5368738 5368739 5368738 5368737 5368721 5368720 5368721 5368722 5368729 5368730 5368729 5368728 5368726 5368727 5368728 5368727 5368735 5368736 5368737 5368736 5368725 5368724 5368725 5368726 10737418 999999 0 10737418 5368734 5368735 5368736 5368735 5368723 5368724 5368725 5368724 5368721 5368720 5368721 5368722 
5368709 5368709 5368709 5368709 5368709 5368739 5368738 5368737 5368738 5368722 5368721 5368722 5368723 5368730 5368729 5368728 5368729 5368727 5368726 5368727 5368728 5368734 5368735 5368736 5368735 5368726 5368725 5368726 5368727 10737418 10737418 999999 0 5368733 5368734 5368735 5368734 5368724 5368723 5368724 5368725 5368722 5368721 5368722 5368723 
5368709 5368709 5368709 5368709 5368709 5368740 5368739 5368738 5368739 5368723 5368722 5368721 5368722 5368731 5368730 5368729 5368730 5368726 5368725 5368726 5368727 5368735 5368736 5368735 5368734 5368727 5368726 5368725 5368726 0 10737418 10737418 999999 5368734 5368735 5368734 5368733 5368723 5368722 5368723 5368724 5368723 5368722 5368721 5368722 
5368709 5368709 5368709 5368709 5368709 5368740 5368741 5368740 5368739 5368745 5368744 5368743 5368744 5368731 5368732 5368731 5368730 5368724 5368723 5368724 5368725 5368721 5368722 5368721 5368720 5368749 5368748 5368747 5368748 5368735 5368734 5368733 5368734 999999 0 10737418 10737418 5368743 5368742 5368741 5368742 5368745 5368744 5368743 5368744 
5368709 5368709 5368709 5368709 5368709 5368739 5368740 5368739 5368738 5368744 5368743 5368744 5368745 5368730 5368731 5368730 5368729 5368725 5368724 5368725 5368726 5368720 5368721 5368720 5368719 5368748 5368747 5368748 5368749 5368734 5368733 5368734 5368735 10737418 999999 0 10737418 5368742 5368741 5368742 5368743 5368744 5368743 5368744 5368745 
5368709 5368709 5368709 5368709 5368709 5368740 5368739 5368738 5368739 5368745 5368744 5368745 5368746 5368731 5368730 5368729 5368730 5368726 5368725 5368726 5368727 5368721 5368720 5368719 5368720 5368749 5368748 5368749 5368750 5368735 5368734 5368735 5368736 10737418 10737418 999999 0 5368743 5368742 5368743 5368744 5368745 5368744 5368745 5368746 
5368709 5368709 5368709 5368709 5368709 5368741 5368740 5368739 5368740 5368746 5368745 5368744 5368745 5368732 5368731 5368730 5368731 5368725 5368724 5368725 5368726 5368722 5368721 5368720 5368721 5368750 5368749 5368748 5368749 5368736 5368735 5368734 5368735 0 10737418 10737418 999999 5368744 5368743 5368742 5368743 5368746 5368745 5368744 5368745 
5368709 5368709 5368709 5368709 5368709 5368751 5368752 5368751 5368750 5368722 5368723 5368722 5368721 5368742 5368743 5368742 5368741 5368729 5368730 5368729 5368728 5368744 5368745 5368744 5368743 5368718 5368717 5368716 5368717 5368724 5368725 5368724 5368723 5368743 5368744 5368743 5368742 999999 0 10737418 10737418 5368726 5368727 5368726 5368725 
5368709 5368709 5368709 5368709 5368709 5368750 5368751 5368750 5368749 5368721 5368722 5368721 5368720 5368741 5368742 5368741 5368740 5368728 5368729 5368730 5368729 5368743 5368744 5368745 5368744 5368717 5368716 5368715 5368716 5368723 5368724 5368723 5368722 5368742 5368743 5368744 5368743 10737418 999999 0 10737418 5368725 5368726 5368725 5368724 
5368709 5368709 5368709 5368709 5368709 5368751 5368750 5368749 5368750 5368722 5368721 5368720 5368721 5368742 5368741 5368740 5368741 5368727 5368728 5368729 5368728 5368742 5368743 5368744 5368743 5368718 5368717 5368716 5368717 5368724 5368723 5368722 5368723 5368741 5368742 5368743 5368742 10737418 10737418 999999 0 5368726 5368725 5368724 5368725 
5368709 5368709 5368709 5368709 5368709 5368752 5368751 5368750 5368751 5368723 5368722 5368721 5368722 5368743 5368742 5368741 5368742 5368728 5368729 5368728 5368727 5368743 5368744 5368743 5368742 5368719 5368718 5368717 5368718 5368725 5368724 5368723 5368724 5368742 5368743 5368742 5368741 0 10737418 10737418 999999 5368727 5368726 5368725 5368726 
5368709 5368709 5368709 5368709 5368709 5368737 5368738 5368737 5368736 5368714 5368715 5368716 5368715 5368728 5368729 5368728 5368727 5368731 5368732 5368731 5368730 5368746 5368747 5368746 5368745 5368718 5368719 5368720 5368719 5368722 5368723 5368722 5368721 5368745 5368746 5368745 5368744 5368724 5368725 5368726 5368725 999999 0 10737418 10737418 
5368709 5368709 5368709 5368709 5368709 5368736 5368737 5368736 5368735 5368715 5368716 5368717 5368716 5368727 5368728 5368727 5368726 5368730 5368731 5368732 5368731 5368745 5368746 5368747 5368746 5368719 5368720 5368721 5368720 5368721 5368722 5368723 5368722 5368744 5368745 5368746 5368745 5368725 5368726 5368727 5368726 10737418 999999 0 10737418 
5368709 5368709 5368709 5368709 5368709 5368737 5368736 5368735 5368736 5368716 5368715 5368716 5368717 5368726 5368727 5368726 5368725 5368729 5368730 5368731 5368730 5368744 5368745 5368746 5368745 5368720 5368719 5368720 5368721 5368720 5368721 5368722 5368721 5368743 5368744 5368745 5368744 5368726 5368725 5368726 5368727 10737418 10737418 999999 0 
5368709 5368709 5368709 5368709 5368709 5368738 5368737 5368736 5368737 5368715 5368714 5368715 5368716 5368727 5368728 5368727 5368726 5368730 5368731 5368730 5368729 5368745 5368746 5368745 5368744 5368719 5368718 5368719 5368720 5368721 5368722 5368721 5368720 5368744 5368745 5368744 5368743 5368725 5368724 5368725 5368726 0 10737418 10737418 999999 
EOF
