GLKH-1.1/TMP/mtspf.pid5575.tour
NAME : mtspf.pid5575.gtsp.80530731.tour
COMMENT : Length = 80530731
COMMENT : Found by LKH [Keld Helsgaun] Sun Mar  2 12:46:00 2025
TYPE : TOUR
DIMENSION : 45
TOUR_SECTION
1
18
19
20
21
4
37
34
35
36
24
25
22
23
15
16
17
14
9
6
7
8
3
2
40
41
38
39
29
26
27
28
13
10
11
12
44
45
42
43
30
31
32
33
5
-1
EOF
